problems/csplib-prob015/SchursLemma-models/noch/O2/lingeling/model_1_4-4-14-solution000001.eprime-solution
language ESSENCE' 1.0

letting boxes_PartitionOccurrence_FirstIndex be [1, 3, 5, 12; int(1..4)]
letting boxes_PartitionOccurrence_NumParts be 4
letting boxes_PartitionOccurrence_PartSizes be [2, 4, 6, 2; int(1..4)]
letting boxes_PartitionOccurrence_WhichPart be [1, 1, 2, 2, 3, 2, 3, 2, 3, 3, 3, 4, 3, 4; int(1..14)]
