problems/csplib-prob015/SchursLemma-models/noch/O2/lingeling/model_1_4-4-14-solution000001.solution
language Essence 1.3

letting boxes be partition({1, 2}, {3, 4, 6, 8}, {5, 7, 9, 10, 11, 13}, {12, 14})
